260279
260279
260279
260279
171135
171135
171135
171135
171135
171135
171135
171135
171135
135775
150758
150758
150758
150758
150758
150758
150758
150758
150758
150758
150758
150758
150758
150758
150758
150758
150758
150758
150758
150758
150758
150758
150758
150758
150758
150758
150758
150758
150758
150758
150758
150758
150758
150758
150758
150758
150758
150758
150758
150758
150758
150758
150758
150758
150758
150758
150758
150758
150758
150758
150758
150758
150758
150758
150758
150758
150758
150758
150758
150758
150758
150758
150758
200731
200731
200731
200731
200731
200731
200731
200731
200731
200731
200731
200731
200731
200731
200731
200731
200731
200731
200731
200731
200731
200731
200731
